
Gurobi 11.0.0 (linux64) logging started Thu Sep 19 17:49:44 2024

Set parameter LogFile to value "/lustre1/scratch/348/vsc34888/JointResearch/05.Models/06.Benchmarking/E.Representative_days_based_on_Line_Benefits_OptModel/IEEE118_mod1_ByStages_nc140/openStarNet_IEEE118_mod1_ByStages_nc140.log"
Set parameter Method to value 2
Set parameter MIPFocus to value 1
Set parameter Presolve to value 2
Set parameter RINS to value 100
Set parameter MIPGap to value 0.01
Set parameter Threads to value 36
Set parameter TimeLimit to value 259200
Set parameter IterationLimit to value 760000000
Gurobi Optimizer version 11.0.0 build v11.0.0rc2 (linux64 - "Rocky Linux 8.9 (Green Obsidian)")

CPU model: Intel(R) Xeon(R) Gold 6240 CPU @ 2.60GHz, instruction set [SSE2|AVX|AVX2|AVX512]
Thread count: 36 physical cores, 36 logical processors, using up to 36 threads

Optimize a model with 198943 rows, 146961 columns and 512318 nonzeros
Model fingerprint: 0x5ede2d97
Variable types: 146927 continuous, 34 integer (34 binary)
Coefficient statistics:
  Matrix range     [3e-04, 9e+03]
  Objective range  [1e+00, 1e+00]
  Bounds range     [1e-04, 3e+00]
  RHS range        [2e-04, 3e+00]
Presolve removed 134563 rows and 67638 columns
Presolve time: 0.93s
Presolved: 64380 rows, 79323 columns, 235866 nonzeros
Variable types: 79289 continuous, 34 integer (34 binary)
Root relaxation presolved: 64380 rows, 79323 columns, 235866 nonzeros

Root barrier log...

Ordering time: 0.02s

Barrier statistics:
 Dense cols : 34
 AA' NZ     : 2.925e+05
 Factor NZ  : 1.146e+06 (roughly 70 MB of memory)
 Factor Ops : 2.544e+07 (less than 1 second per iteration)
 Threads    : 35

                  Objective                Residual
Iter       Primal          Dual         Primal    Dual     Compl     Time
   0   9.61704317e+06 -3.68755308e+09  1.58e+01 3.19e+03  8.66e+04     1s
   1   2.28425085e+06 -1.43697829e+09  3.51e+00 1.31e-07  1.81e+04     1s
   2   5.19975582e+05 -4.04213450e+08  5.74e-01 1.02e-07  3.17e+03     2s
   3   2.85370004e+05 -1.08445310e+08  1.24e-01 9.81e-09  6.81e+02     2s
   4   1.98752387e+05 -1.54424527e+07  1.33e-02 2.17e-09  8.51e+01     2s
   5   1.26895606e+05 -4.64218912e+06  1.39e-03 6.01e-10  2.52e+01     2s
   6   9.36690354e+04 -3.36827091e+06  6.68e-04 4.32e-10  1.82e+01     2s
   7   6.81029547e+04 -9.64870134e+05  3.38e-04 1.13e-10  5.43e+00     2s
   8   4.02062840e+04 -3.05311883e+05  1.39e-04 3.55e-11  1.82e+00     2s
   9   1.81891280e+04 -9.20562015e+04  3.84e-05 2.18e-11  5.79e-01     2s
  10   8.50758709e+03 -3.27419184e+04  1.14e-05 7.28e-12  2.17e-01     2s
  11   4.47680576e+03 -1.19060426e+04  4.58e-06 2.91e-11  8.61e-02     2s
  12   2.98554982e+03 -5.47522255e+03  2.51e-06 1.46e-11  4.45e-02     2s
  13   2.19606813e+03 -2.90864806e+03  1.52e-06 3.64e-12  2.68e-02     2s
  14   1.63708683e+03 -1.34652582e+03  8.48e-07 1.46e-11  1.57e-02     2s
  15   1.36095346e+03 -6.61589790e+02  5.37e-07 1.46e-11  1.06e-02     2s
  16   1.17475359e+03 -1.00611174e+02  3.38e-07 2.91e-11  6.70e-03     2s
  17   1.05685090e+03  4.84796548e+02  2.22e-07 1.46e-11  3.01e-03     2s
  18   9.76000187e+02  5.84065964e+02  1.49e-07 3.64e-12  2.06e-03     2s
  19   9.35305777e+02  6.39356037e+02  1.13e-07 3.64e-12  1.55e-03     2s
  20   9.00825036e+02  6.76357655e+02  8.29e-08 7.28e-12  1.18e-03     2s
  21   8.83401895e+02  7.19595364e+02  6.82e-08 1.46e-11  8.61e-04     2s
  22   8.48921350e+02  7.46101584e+02  4.00e-08 7.28e-12  5.40e-04     2s
  23   8.35067499e+02  7.59173879e+02  2.90e-08 1.46e-11  3.99e-04     2s
  24   8.23490990e+02  7.70702506e+02  1.98e-08 7.28e-12  2.77e-04     2s
  25   8.13339076e+02  7.80496240e+02  1.19e-08 7.28e-12  1.73e-04     2s
  26   8.06963477e+02  7.86365080e+02  7.09e-09 7.28e-12  1.08e-04     2s
  27   8.04908146e+02  7.90267737e+02  5.57e-09 7.28e-12  7.69e-05     2s
  28   8.02112134e+02  7.92807945e+02  3.54e-09 1.46e-11  4.89e-05     2s
  29   8.00016143e+02  7.94150294e+02  2.03e-09 7.28e-12  3.08e-05     2s
  30   7.98269956e+02  7.96204071e+02  7.88e-10 1.46e-11  1.09e-05     2s
  31   7.97418182e+02  7.96860511e+02  2.28e-10 1.46e-11  2.93e-06     3s
  32   7.97139881e+02  7.97000284e+02  5.65e-11 7.28e-12  7.33e-07     3s
  33   7.97087169e+02  7.97028097e+02  3.61e-10 7.28e-12  3.10e-07     3s
  34   7.97059341e+02  7.97036599e+02  4.68e-10 1.46e-11  1.19e-07     3s
  35   7.97049917e+02  7.97042610e+02  3.56e-10 7.28e-12  3.84e-08     3s
  36   7.97044893e+02  7.97044308e+02  6.95e-10 1.46e-11  3.08e-09     3s
  37   7.97044767e+02  7.97044634e+02  1.35e-10 1.46e-11  6.98e-10     3s
  38   7.97044749e+02  7.97044741e+02  1.68e-10 7.28e-12  3.99e-11     3s

Barrier solved model in 38 iterations and 2.74 seconds (2.69 work units)
Optimal objective 7.97044749e+02


Root relaxation: objective 7.970447e+02, 5710 iterations, 2.53 seconds (1.94 work units)

    Nodes    |    Current Node    |     Objective Bounds      |     Work
 Expl Unexpl |  Obj  Depth IntInf | Incumbent    BestBd   Gap | It/Node Time

     0     0  797.04475    0   23          -  797.04475      -     -    4s
H    0     0                    6812.5121976  797.04475  88.3%     -   10s
H    0     0                    2654.8586867  797.04475  70.0%     -   16s
     0     0  811.27385    0   23 2654.85869  811.27385  69.4%     -   25s
     0     0  811.99985    0   21 2654.85869  811.99985  69.4%     -   26s
     0     0  812.10902    0   21 2654.85869  812.10902  69.4%     -   27s
     0     0  816.17756    0   21 2654.85869  816.17756  69.3%     -   30s
     0     0  816.17756    0   20 2654.85869  816.17756  69.3%     -   31s
     0     0  816.17756    0   20 2654.85869  816.17756  69.3%     -   32s
     0     0  816.17756    0   20 2654.85869  816.17756  69.3%     -   32s
     0     0  816.17756    0   20 2654.85869  816.17756  69.3%     -   34s
     0     0  816.17756    0   20 2654.85869  816.17756  69.3%     -   35s
     0     0  816.17756    0   20 2654.85869  816.17756  69.3%     -   35s
     0     0  816.17756    0   20 2654.85869  816.17756  69.3%     -   37s
     0     0  816.17756    0   20 2654.85869  816.17756  69.3%     -   37s
     0     0  816.17756    0   20 2654.85869  816.17756  69.3%     -   40s
H    0     0                     914.7976782  816.17756  10.8%     -  825s
     0     2  816.17756    0   20  914.79768  816.17756  10.8%     -  827s
     1     4  861.13433    1   19  914.79768  816.17756  10.8%  7691  836s
     3     6     cutoff    2       914.79768  824.71907  9.85%  5991  852s
     7    12  864.26166    3   17  914.79768  844.75478  7.66%  4688  864s
    13    22  875.01076    4   15  914.79768  848.38585  7.26%  3965  876s
    25    38  878.27500    5   14  914.79768  856.90547  6.33%  3638  893s
    47    50  884.67542    6   14  914.79768  861.59258  5.82%  3321  933s
    83    58  909.82953    7   14  914.79768  863.68398  5.59%  4041  974s
   119    56     cutoff    8       914.79768  870.74991  4.82%  4637 1023s
   155    70     cutoff    8       914.79768  870.74991  4.82%  4510 1045s
   191    63  894.02909    9   11  914.79768  870.74991  4.82%  4128 1074s
   234    70  897.97396   10   10  914.79768  870.74991  4.82%  3832 1107s
   292    54     cutoff   11       914.79768  870.74991  4.82%  3475 1119s
   349    39     cutoff   10       914.79768  880.14041  3.79%  3095 1134s
   407    30  898.96391    9   11  914.79768  880.25477  3.78%  2803 1146s
   460    20  909.83425   10   10  914.79768  885.35409  3.22%  2590 1155s
   504    10     cutoff   11       914.79768  896.43008  2.01%  2453 1165s
   545     5     cutoff   15       914.79768  908.26784  0.71%  2338 1176s

Cutting planes:
  Implied bound: 237
  MIR: 500
  Flow cover: 2
  Relax-and-lift: 1

Explored 558 nodes (1315886 simplex iterations) in 1177.04 seconds (1355.32 work units)
Thread count was 36 (of 36 available processors)

Solution count 3: 914.798 2654.86 6812.51 

Optimal solution found (tolerance 1.00e-02)
Best objective 9.147976781700e+02, best bound 9.113637440636e+02, gap 0.3754%

Gurobi 11.0.0 (linux64) logging started Thu Sep 19 18:09:57 2024

Set parameter LogFile to value "/lustre1/scratch/348/vsc34888/JointResearch/05.Models/06.Benchmarking/E.Representative_days_based_on_Line_Benefits_OptModel/IEEE118_mod1_ByStages_nc140/openStarNet_IEEE118_mod1_ByStages_nc140.log"
Set parameter Method to value 2
Set parameter MIPFocus to value 1
Set parameter Presolve to value 2
Set parameter RINS to value 100
Set parameter MIPGap to value 0.01
Set parameter Threads to value 36
Set parameter TimeLimit to value 259200
Set parameter IterationLimit to value 760000000
Gurobi Optimizer version 11.0.0 build v11.0.0rc2 (linux64 - "Rocky Linux 8.9 (Green Obsidian)")

CPU model: Intel(R) Xeon(R) Gold 6240 CPU @ 2.60GHz, instruction set [SSE2|AVX|AVX2|AVX512]
Thread count: 36 physical cores, 36 logical processors, using up to 36 threads

Optimize a model with 198943 rows, 146927 columns and 493244 nonzeros
Model fingerprint: 0xecddefe9
Coefficient statistics:
  Matrix range     [3e-04, 9e+03]
  Objective range  [1e+00, 1e+00]
  Bounds range     [1e-04, 3e+00]
  RHS range        [2e-04, 2e+02]
Presolve removed 148696 rows and 64939 columns
Presolve time: 0.29s
Presolved: 50247 rows, 82535 columns, 198999 nonzeros

Ordering time: 0.01s

Barrier statistics:
 AA' NZ     : 1.673e+05
 Factor NZ  : 6.765e+05 (roughly 60 MB of memory)
 Factor Ops : 1.009e+07 (less than 1 second per iteration)
 Threads    : 36

                  Objective                Residual
Iter       Primal          Dual         Primal    Dual     Compl     Time
   0   1.70030131e+07 -1.43578941e+09  9.18e+01 1.02e+02  3.57e+04     0s
   1   2.26330207e+06 -4.40312853e+08  1.13e+01 3.03e-12  5.10e+03     0s
   2   4.20064900e+05 -9.17499058e+07  1.49e+00 2.96e-12  7.45e+02     0s
   3   1.69739935e+05 -1.26963233e+07  4.80e-02 2.42e-12  7.48e+01     0s
   4   9.06544133e+04 -1.66964447e+06  1.82e-03 2.27e-12  9.78e+00     0s
   5   4.96001201e+04 -4.73257958e+05  6.29e-04 9.09e-13  2.90e+00     0s
   6   2.70189895e+04 -1.41975233e+05  2.34e-04 9.09e-13  9.37e-01     1s
   7   1.39818201e+04 -4.66634147e+04  9.36e-05 4.55e-13  3.36e-01     1s
   8   7.84826834e+03 -2.08046838e+04  4.50e-05 4.55e-13  1.59e-01     1s
   9   4.65326463e+03 -7.17757152e+03  2.28e-05 4.55e-13  6.56e-02     1s
  10   3.23673749e+03 -4.25243222e+03  1.37e-05 4.55e-13  4.15e-02     1s
  11   2.15293445e+03 -1.52863156e+03  6.87e-06 9.09e-13  2.04e-02     1s
  12   1.52642063e+03 -1.32223607e+02  3.19e-06 4.55e-13  9.19e-03     1s
  13   1.32615099e+03  4.25505304e+02  2.06e-06 4.55e-13  4.99e-03     1s
  14   1.27774719e+03  5.01973392e+02  1.80e-06 4.55e-13  4.30e-03     1s
  15   1.15220549e+03  6.43250805e+02  1.14e-06 4.55e-13  2.82e-03     1s
  16   1.06482879e+03  7.28843177e+02  6.94e-07 4.55e-13  1.86e-03     1s
  17   1.01597087e+03  8.16557440e+02  4.54e-07 4.55e-13  1.11e-03     1s
  18   9.80764219e+02  8.54624767e+02  2.91e-07 4.55e-13  6.99e-04     1s
  19   9.60022321e+02  8.79306691e+02  1.95e-07 4.55e-13  4.47e-04     1s
  20   9.35976679e+02  8.93463940e+02  9.24e-08 4.55e-13  2.36e-04     1s
  21   9.29355819e+02  9.03523174e+02  6.26e-08 4.55e-13  1.43e-04     1s
  22   9.23441084e+02  9.08474646e+02  3.65e-08 4.55e-13  8.30e-05     1s
  23   9.21112347e+02  9.11711467e+02  2.64e-08 4.55e-13  5.21e-05     1s
  24   9.18798203e+02  9.13018239e+02  1.66e-08 4.55e-13  3.20e-05     1s
  25   9.16495709e+02  9.13714693e+02  6.90e-09 9.09e-13  1.54e-05     1s
  26   9.15671471e+02  9.14264245e+02  3.46e-09 4.55e-13  7.80e-06     1s
  27   9.15155002e+02  9.14445760e+02  1.39e-09 4.55e-13  3.93e-06     1s
  28   9.14925872e+02  9.14647760e+02  4.70e-10 4.55e-13  1.54e-06     1s
  29   9.14832231e+02  9.14765784e+02  4.47e-10 4.55e-13  3.68e-07     1s
  30   9.14806420e+02  9.14791084e+02  1.65e-09 4.55e-13  8.50e-08     1s
  31   9.14799126e+02  9.14796883e+02  2.00e-09 4.55e-13  1.24e-08     1s
  32   9.14797770e+02  9.14797544e+02  1.19e-08 4.55e-13  1.25e-09     1s
  33   9.14797681e+02  9.14797668e+02  1.36e-09 9.09e-13  7.04e-11     1s
  34   9.14797678e+02  9.14797678e+02  1.30e-09 4.55e-13  2.52e-13     1s

Barrier solved model in 34 iterations and 1.14 seconds (1.12 work units)
Optimal objective 9.14797678e+02

Crossover log...

   14345 DPushes remaining with DInf 0.0000000e+00                 1s
       0 DPushes remaining with DInf 0.0000000e+00                 1s

     503 PPushes remaining with PInf 0.0000000e+00                 1s
       0 PPushes remaining with PInf 0.0000000e+00                 1s

  Push phase complete: Pinf 0.0000000e+00, Dinf 2.2836792e-12      1s

Iteration    Objective       Primal Inf.    Dual Inf.      Time
    5866    9.1479768e+02   0.000000e+00   0.000000e+00      2s

Solved in 5866 iterations and 1.73 seconds (1.35 work units)
Optimal objective  9.147976782e+02

Gurobi 11.0.0 (linux64) logging started Sat Sep 21 21:34:23 2024

Set parameter LogFile to value "/lustre1/scratch/348/vsc34888/JointResearch/05.Models/06.Benchmarking/E.Representative_days_based_on_Line_Benefits_OptModel/IEEE118_mod1_ByStages_nc140/openStarNet_IEEE118_mod1_ByStages_nc140.log"
Set parameter Method to value 2
Set parameter MIPFocus to value 1
Set parameter Presolve to value 2
Set parameter RINS to value 100
Set parameter MIPGap to value 0.01
Set parameter Threads to value 36
Set parameter TimeLimit to value 259200
Set parameter IterationLimit to value 760000000
Gurobi Optimizer version 11.0.0 build v11.0.0rc2 (linux64 - "Rocky Linux 8.9 (Green Obsidian)")

CPU model: Intel(R) Xeon(R) Gold 6240 CPU @ 2.60GHz, instruction set [SSE2|AVX|AVX2|AVX512]
Thread count: 36 physical cores, 36 logical processors, using up to 36 threads

Optimize a model with 198943 rows, 146927 columns and 493244 nonzeros
Model fingerprint: 0xd31f9e85
Coefficient statistics:
  Matrix range     [3e-04, 9e+03]
  Objective range  [1e+00, 1e+00]
  Bounds range     [1e-04, 3e+00]
  RHS range        [2e-04, 3e+00]
Presolve removed 150564 rows and 68697 columns
Presolve time: 0.30s
Presolved: 48379 rows, 80457 columns, 192897 nonzeros

Ordering time: 0.01s

Barrier statistics:
 AA' NZ     : 1.718e+05
 Factor NZ  : 6.190e+05 (roughly 60 MB of memory)
 Factor Ops : 8.747e+06 (less than 1 second per iteration)
 Threads    : 36

                  Objective                Residual
Iter       Primal          Dual         Primal    Dual     Compl     Time
   0   1.71837364e+07 -2.17758727e+09  1.13e+02 2.12e+02  6.42e+04     0s
   1   1.65904063e+06 -7.71921713e+08  9.61e+00 5.85e-12  7.86e+03     0s
   2   4.62529966e+05 -1.57764072e+08  1.72e+00 5.88e-12  1.30e+03     0s
   3   2.10269327e+05 -2.09811685e+07  4.61e-02 5.13e-12  1.25e+02     0s
   4   1.36804726e+05 -3.19811999e+06  3.43e-03 1.18e-11  1.90e+01     0s
   5   9.13378002e+04 -1.02208122e+06  1.33e-03 3.41e-12  6.33e+00     1s
   6   5.33514395e+04 -3.08762495e+05  4.85e-04 1.82e-12  2.06e+00     1s
   7   3.70700454e+04 -1.54800594e+05  2.28e-04 1.82e-12  1.09e+00     1s
   8   2.72952165e+04 -7.52784540e+04  1.18e-04 1.82e-12  5.82e-01     1s
   9   2.17854936e+04 -3.62062889e+04  6.74e-05 9.09e-13  3.29e-01     1s
  10   1.83963525e+04 -1.20954523e+04  4.34e-05 9.09e-13  1.73e-01     1s
  11   1.60406891e+04  1.30286588e+03  2.75e-05 9.09e-13  8.36e-02     1s
  12   1.33726242e+04  6.64324443e+03  1.14e-05 9.09e-13  3.82e-02     1s
  13   1.23332705e+04  8.56750940e+03  5.74e-06 9.09e-13  2.14e-02     1s
  14   1.18950914e+04  9.70760529e+03  3.49e-06 9.09e-13  1.24e-02     1s
  15   1.16583724e+04  1.03834620e+04  2.34e-06 1.82e-12  7.23e-03     1s
  16   1.14631749e+04  1.07212092e+04  1.44e-06 1.82e-12  4.21e-03     1s
  17   1.13073545e+04  1.08685173e+04  7.56e-07 9.09e-13  2.49e-03     1s
  18   1.12066811e+04  1.10049642e+04  3.38e-07 9.09e-13  1.14e-03     1s
  19   1.11641717e+04  1.10656259e+04  1.65e-07 9.09e-13  5.59e-04     1s
  20   1.11376794e+04  1.10958467e+04  6.46e-08 9.09e-13  2.37e-04     1s
  21   1.11295747e+04  1.11045710e+04  3.56e-08 9.09e-13  1.42e-04     1s
  22   1.11233491e+04  1.11148898e+04  1.44e-08 9.09e-13  4.80e-05     1s
  23   1.11196541e+04  1.11178634e+04  2.20e-09 9.09e-13  1.02e-05     1s
  24   1.11190340e+04  1.11186308e+04  8.61e-10 1.82e-12  2.29e-06     1s
  25   1.11189223e+04  1.11187697e+04  4.69e-10 9.09e-13  8.66e-07     1s
  26   1.11188647e+04  1.11188247e+04  2.59e-10 4.55e-13  2.27e-07     1s
  27   1.11188533e+04  1.11188448e+04  3.33e-10 9.09e-13  4.81e-08     1s
  28   1.11188511e+04  1.11188493e+04  1.89e-10 9.09e-13  9.86e-09     1s
  29   1.11188505e+04  1.11188504e+04  2.69e-10 1.82e-12  5.78e-10     1s
  30   1.11188505e+04  1.11188505e+04  1.53e-10 4.55e-13  7.34e-11     1s

Barrier solved model in 30 iterations and 0.99 seconds (0.97 work units)
Optimal objective 1.11188505e+04

Crossover log...

   14090 DPushes remaining with DInf 0.0000000e+00                 1s
       0 DPushes remaining with DInf 0.0000000e+00                 1s

    1090 PPushes remaining with PInf 0.0000000e+00                 1s
       0 PPushes remaining with PInf 0.0000000e+00                 1s

  Push phase complete: Pinf 0.0000000e+00, Dinf 2.2906418e-11      1s

Extra simplex iterations after uncrush: 20
Iteration    Objective       Primal Inf.    Dual Inf.      Time
    5287    1.1118850e+04   0.000000e+00   0.000000e+00      1s

Solved in 5287 iterations and 1.46 seconds (1.24 work units)
Optimal objective  1.111885049e+04

Gurobi 11.0.0 (linux64) logging started Sat Sep 21 21:35:02 2024

Set parameter LogFile to value "/lustre1/scratch/348/vsc34888/JointResearch/05.Models/06.Benchmarking/E.Representative_days_based_on_Line_Benefits_OptModel/IEEE118_mod1_ByStages_nc140/openStarNet_IEEE118_mod1_ByStages_nc140.log"
Set parameter Method to value 2
Set parameter MIPFocus to value 1
Set parameter Presolve to value 2
Set parameter RINS to value 100
Set parameter MIPGap to value 0.01
Set parameter Threads to value 36
Set parameter TimeLimit to value 259200
Set parameter IterationLimit to value 760000000
Gurobi Optimizer version 11.0.0 build v11.0.0rc2 (linux64 - "Rocky Linux 8.9 (Green Obsidian)")

CPU model: Intel(R) Xeon(R) Gold 6240 CPU @ 2.60GHz, instruction set [SSE2|AVX|AVX2|AVX512]
Thread count: 36 physical cores, 36 logical processors, using up to 36 threads

Optimize a model with 198943 rows, 146927 columns and 493244 nonzeros
Model fingerprint: 0xd31f9e85
Coefficient statistics:
  Matrix range     [3e-04, 9e+03]
  Objective range  [1e+00, 1e+00]
  Bounds range     [1e-04, 3e+00]
  RHS range        [2e-04, 3e+00]
Presolve removed 150564 rows and 68697 columns
Presolve time: 0.30s
Presolved: 48379 rows, 80457 columns, 192897 nonzeros

Ordering time: 0.01s

Barrier statistics:
 AA' NZ     : 1.718e+05
 Factor NZ  : 6.190e+05 (roughly 60 MB of memory)
 Factor Ops : 8.747e+06 (less than 1 second per iteration)
 Threads    : 36

                  Objective                Residual
Iter       Primal          Dual         Primal    Dual     Compl     Time
   0   1.71837364e+07 -2.17758727e+09  1.13e+02 2.12e+02  6.42e+04     0s
   1   1.65904063e+06 -7.71921713e+08  9.61e+00 5.85e-12  7.86e+03     0s
   2   4.62529966e+05 -1.57764072e+08  1.72e+00 5.88e-12  1.30e+03     0s
   3   2.10269327e+05 -2.09811685e+07  4.61e-02 5.13e-12  1.25e+02     0s
   4   1.36804726e+05 -3.19811999e+06  3.43e-03 1.18e-11  1.90e+01     0s
   5   9.13378002e+04 -1.02208122e+06  1.33e-03 3.41e-12  6.33e+00     1s
   6   5.33514395e+04 -3.08762495e+05  4.85e-04 1.82e-12  2.06e+00     1s
   7   3.70700454e+04 -1.54800594e+05  2.28e-04 1.82e-12  1.09e+00     1s
   8   2.72952165e+04 -7.52784540e+04  1.18e-04 1.82e-12  5.82e-01     1s
   9   2.17854936e+04 -3.62062889e+04  6.74e-05 9.09e-13  3.29e-01     1s
  10   1.83963525e+04 -1.20954523e+04  4.34e-05 9.09e-13  1.73e-01     1s
  11   1.60406891e+04  1.30286588e+03  2.75e-05 9.09e-13  8.36e-02     1s
  12   1.33726242e+04  6.64324443e+03  1.14e-05 9.09e-13  3.82e-02     1s
  13   1.23332705e+04  8.56750940e+03  5.74e-06 9.09e-13  2.14e-02     1s
  14   1.18950914e+04  9.70760529e+03  3.49e-06 9.09e-13  1.24e-02     1s
  15   1.16583724e+04  1.03834620e+04  2.34e-06 1.82e-12  7.23e-03     1s
  16   1.14631749e+04  1.07212092e+04  1.44e-06 1.82e-12  4.21e-03     1s
  17   1.13073545e+04  1.08685173e+04  7.56e-07 9.09e-13  2.49e-03     1s
  18   1.12066811e+04  1.10049642e+04  3.38e-07 9.09e-13  1.14e-03     1s
  19   1.11641717e+04  1.10656259e+04  1.65e-07 9.09e-13  5.59e-04     1s
  20   1.11376794e+04  1.10958467e+04  6.46e-08 9.09e-13  2.37e-04     1s
  21   1.11295747e+04  1.11045710e+04  3.56e-08 9.09e-13  1.42e-04     1s
  22   1.11233491e+04  1.11148898e+04  1.44e-08 9.09e-13  4.80e-05     1s
  23   1.11196541e+04  1.11178634e+04  2.20e-09 9.09e-13  1.02e-05     1s
  24   1.11190340e+04  1.11186308e+04  8.61e-10 1.82e-12  2.29e-06     1s
  25   1.11189223e+04  1.11187697e+04  4.69e-10 9.09e-13  8.66e-07     1s
  26   1.11188647e+04  1.11188247e+04  2.59e-10 4.55e-13  2.27e-07     1s
  27   1.11188533e+04  1.11188448e+04  3.33e-10 9.09e-13  4.81e-08     1s
  28   1.11188511e+04  1.11188493e+04  1.89e-10 9.09e-13  9.86e-09     1s
  29   1.11188505e+04  1.11188504e+04  2.69e-10 1.82e-12  5.78e-10     1s
  30   1.11188505e+04  1.11188505e+04  1.53e-10 4.55e-13  7.34e-11     1s

Barrier solved model in 30 iterations and 0.96 seconds (0.97 work units)
Optimal objective 1.11188505e+04

Crossover log...

   14090 DPushes remaining with DInf 0.0000000e+00                 1s
       0 DPushes remaining with DInf 0.0000000e+00                 1s

    1090 PPushes remaining with PInf 0.0000000e+00                 1s
       0 PPushes remaining with PInf 0.0000000e+00                 1s

  Push phase complete: Pinf 0.0000000e+00, Dinf 2.2906418e-11      1s

Extra simplex iterations after uncrush: 20
Iteration    Objective       Primal Inf.    Dual Inf.      Time
    5287    1.1118850e+04   0.000000e+00   0.000000e+00      1s

Solved in 5287 iterations and 1.42 seconds (1.24 work units)
Optimal objective  1.111885049e+04
